192
0 133 108 22 117 39 37 152 189 186 
126 86 72 85 30 175 156 79 14 19 
70 171 124 155 96 66 17 77 180 102 
154 136 18 45 163 168 148 26 99 84 
169 98 91 6 146 162 166 54 65 51 
150 184 58 69 176 71 50 61 109 80 
38 141 13 34 122 161 173 23 29 44 
53 105 82 1 107 42 8 78 76 143 
123 187 74 179 140 127 144 129 11 21 
63 149 160 128 137 20 60 164 35 191 
75 88 121 138 47 68 2 59 157 116 
167 178 5 131 119 130 103 43 142 90 
24 111 165 92 134 87 115 28 89 36 
188 55 57 83 3 153 145 147 135 112 
170 56 46 159 10 110 181 104 15 183 
151 67 100 25 94 16 172 62 33 12 
101 125 190 31 52 41 177 81 4 73 
7 174 139 118 113 114 40 158 48 27 
64 49 132 182 93 106 32 95 97 185 
120 9 
